(set-logic QF_BV)
(declare-fun _substvar_105_ () (_ BitVec 128))
(assert (and true true (not (= ((_ extract 95 64) _substvar_105_) ((_ extract 63 32) _substvar_105_))) true true true true true true true true true true true true true true true true true true))
(check-sat)
(exit)
